param n := 60;
param c := 10000
param : V : p w :=
   0	  79	 351
   1	   9	 258
   2	  87	 391
   3	  59	 359
   4	  67	 259
   5	   5	 382
   6	  95	 376
   7	  29	 308
   8	  69	 316
   9	  60	 445
  10	  36	 275
  11	  24	 280
  12	  42	 426
  13	  37	 276
  14	  12	 298
  15	   6	 468
  16	  81	 259
  17	  47	 273
  18	  66	 453
  19	  50	 258
  20	  74	 289
  21	  81	 443
  22	  43	 253
  23	  60	 304
  24	  67	 380
  25	   2	 261
  26	   2	 359
  27	  31	 377
  28	  99	 304
  29	  98	 319
  30	  77	 483
  31	  63	 254
  32	  66	 263
  33	  41	 451
  34	   6	 261
  35	  20	 288
  36	  41	 373
  37	  58	 263
  38	  34	 364
  39	   9	 417
  40	  67	 276
  41	   3	 307
  42	  30	 363
  43	  21	 294
  44	  31	 343
  45	  28	 442
  46	  59	 254
  47	  64	 304
  48	  57	 412
  49	  52	 256
  50	  12	 332
  51	  22	 369
  52	  80	 262
  53	   3	 369
  54	  95	 429
  55	  54	 252
  56	  60	 319
  57	  69	 397
  58	  13	 266
  59	  87	 337
;

set E :=
   0	   5
   0	   6
   0	   9
   0	  15
   0	  17
   0	  20
   0	  23
   0	  24
   0	  32
   0	  33
   0	  35
   0	  39
   0	  40
   0	  42
   0	  45
   0	  49
   0	  55
   0	  57
   1	   8
   1	   9
   1	  12
   1	  13
   1	  17
   1	  20
   1	  22
   1	  24
   1	  27
   1	  30
   1	  31
   1	  33
   1	  35
   1	  39
   1	  40
   1	  42
   1	  44
   1	  46
   1	  47
   1	  49
   1	  53
   1	  54
   1	  56
   1	  57
   2	   5
   2	   8
   2	   9
   2	  11
   2	  13
   2	  14
   2	  15
   2	  16
   2	  17
   2	  21
   2	  23
   2	  24
   2	  26
   2	  27
   2	  30
   2	  31
   2	  32
   2	  33
   2	  36
   2	  39
   2	  42
   2	  43
   2	  44
   2	  45
   2	  47
   2	  49
   2	  50
   2	  51
   2	  53
   2	  54
   2	  55
   2	  58
   3	   4
   3	   5
   3	   9
   3	  10
   3	  16
   3	  17
   3	  20
   3	  21
   3	  23
   3	  26
   3	  27
   3	  29
   3	  30
   3	  35
   3	  39
   3	  43
   3	  45
   3	  49
   3	  52
   4	   5
   4	  11
   4	  12
   4	  13
   4	  14
   4	  15
   4	  18
   4	  19
   4	  21
   4	  23
   4	  26
   4	  30
   4	  33
   4	  36
   4	  38
   4	  40
   4	  42
   4	  44
   4	  51
   4	  53
   4	  55
   4	  57
   5	   9
   5	  15
   5	  17
   5	  20
   5	  27
   5	  29
   5	  30
   5	  31
   5	  34
   5	  35
   5	  38
   5	  43
   5	  45
   5	  46
   5	  50
   5	  51
   5	  52
   5	  53
   5	  58
   5	  59
   6	   7
   6	   8
   6	   9
   6	  10
   6	  12
   6	  13
   6	  14
   6	  15
   6	  17
   6	  18
   6	  20
   6	  24
   6	  26
   6	  27
   6	  29
   6	  30
   6	  36
   6	  38
   6	  39
   6	  41
   6	  43
   6	  44
   6	  46
   6	  48
   6	  51
   6	  55
   6	  56
   6	  58
   7	  11
   7	  13
   7	  19
   7	  22
   7	  23
   7	  29
   7	  30
   7	  35
   7	  36
   7	  38
   7	  40
   7	  42
   7	  44
   7	  47
   7	  49
   7	  52
   7	  53
   7	  56
   7	  58
   8	   9
   8	  12
   8	  13
   8	  16
   8	  17
   8	  18
   8	  19
   8	  20
   8	  22
   8	  25
   8	  28
   8	  29
   8	  32
   8	  36
   8	  38
   8	  50
   8	  52
   8	  53
   8	  54
   8	  56
   8	  57
   8	  58
   9	  10
   9	  11
   9	  15
   9	  17
   9	  20
   9	  23
   9	  24
   9	  26
   9	  29
   9	  32
   9	  34
   9	  37
   9	  38
   9	  41
   9	  43
   9	  44
   9	  46
   9	  47
   9	  52
   9	  54
  10	  12
  10	  13
  10	  16
  10	  20
  10	  25
  10	  26
  10	  28
  10	  29
  10	  30
  10	  33
  10	  35
  10	  40
  10	  42
  10	  43
  10	  45
  10	  46
  10	  50
  10	  51
  10	  53
  10	  56
  10	  58
  11	  14
  11	  15
  11	  19
  11	  21
  11	  22
  11	  25
  11	  27
  11	  28
  11	  29
  11	  30
  11	  33
  11	  34
  11	  36
  11	  38
  11	  41
  11	  43
  11	  53
  11	  54
  11	  55
  11	  58
  12	  17
  12	  18
  12	  19
  12	  24
  12	  27
  12	  28
  12	  30
  12	  31
  12	  33
  12	  35
  12	  39
  12	  41
  12	  44
  12	  46
  12	  47
  12	  48
  12	  49
  12	  50
  12	  51
  12	  52
  12	  54
  12	  55
  12	  56
  13	  19
  13	  20
  13	  25
  13	  30
  13	  33
  13	  34
  13	  37
  13	  39
  13	  41
  13	  44
  13	  45
  13	  51
  13	  55
  13	  57
  13	  58
  13	  59
  14	  19
  14	  20
  14	  22
  14	  23
  14	  24
  14	  25
  14	  29
  14	  30
  14	  31
  14	  33
  14	  35
  14	  36
  14	  39
  14	  41
  14	  43
  14	  49
  14	  53
  14	  55
  14	  56
  14	  57
  15	  19
  15	  20
  15	  21
  15	  25
  15	  27
  15	  28
  15	  34
  15	  37
  15	  38
  15	  39
  15	  40
  15	  41
  15	  43
  15	  57
  16	  17
  16	  19
  16	  20
  16	  21
  16	  22
  16	  23
  16	  24
  16	  30
  16	  33
  16	  34
  16	  38
  16	  40
  16	  46
  16	  47
  16	  49
  16	  57
  16	  58
  16	  59
  17	  18
  17	  20
  17	  21
  17	  23
  17	  24
  17	  26
  17	  27
  17	  29
  17	  31
  17	  33
  17	  34
  17	  37
  17	  38
  17	  44
  17	  46
  17	  56
  17	  59
  18	  21
  18	  23
  18	  28
  18	  29
  18	  31
  18	  34
  18	  35
  18	  36
  18	  38
  18	  39
  18	  40
  18	  44
  18	  46
  18	  47
  18	  48
  18	  50
  18	  52
  18	  53
  18	  55
  18	  58
  19	  20
  19	  21
  19	  25
  19	  33
  19	  36
  19	  37
  19	  38
  19	  43
  19	  44
  19	  46
  19	  47
  19	  48
  19	  51
  19	  52
  19	  53
  19	  55
  19	  57
  19	  58
  19	  59
  20	  22
  20	  27
  20	  31
  20	  34
  20	  37
  20	  38
  20	  39
  20	  42
  20	  43
  20	  45
  20	  48
  20	  49
  20	  52
  20	  53
  20	  57
  20	  58
  20	  59
  21	  23
  21	  25
  21	  26
  21	  28
  21	  30
  21	  33
  21	  34
  21	  42
  21	  48
  21	  52
  21	  53
  21	  55
  21	  56
  21	  58
  21	  59
  22	  25
  22	  26
  22	  27
  22	  28
  22	  29
  22	  30
  22	  31
  22	  33
  22	  39
  22	  44
  22	  49
  22	  50
  22	  51
  22	  52
  22	  54
  22	  55
  22	  58
  23	  25
  23	  26
  23	  27
  23	  30
  23	  34
  23	  37
  23	  38
  23	  40
  23	  47
  23	  50
  23	  52
  23	  53
  23	  56
  23	  57
  23	  58
  24	  29
  24	  34
  24	  35
  24	  36
  24	  39
  24	  44
  24	  46
  24	  48
  24	  50
  24	  53
  24	  58
  25	  26
  25	  28
  25	  30
  25	  35
  25	  39
  25	  40
  25	  42
  25	  44
  25	  48
  25	  50
  25	  51
  25	  59
  26	  30
  26	  33
  26	  34
  26	  38
  26	  43
  26	  44
  26	  49
  26	  50
  26	  51
  26	  55
  26	  56
  26	  58
  27	  32
  27	  34
  27	  35
  27	  39
  27	  41
  27	  42
  27	  43
  27	  44
  27	  47
  27	  49
  27	  51
  28	  30
  28	  31
  28	  32
  28	  35
  28	  38
  28	  41
  28	  43
  28	  45
  28	  47
  28	  48
  28	  49
  28	  50
  28	  52
  28	  54
  28	  55
  28	  57
  28	  58
  29	  30
  29	  40
  29	  41
  29	  45
  29	  51
  29	  55
  29	  57
  30	  32
  30	  33
  30	  37
  30	  38
  30	  40
  30	  42
  30	  46
  30	  49
  30	  52
  30	  54
  30	  55
  30	  58
  31	  32
  31	  33
  31	  42
  31	  47
  31	  49
  31	  53
  31	  55
  31	  56
  32	  35
  32	  36
  32	  41
  32	  43
  32	  45
  32	  48
  32	  49
  32	  52
  32	  53
  32	  54
  33	  35
  33	  40
  33	  41
  33	  45
  33	  47
  33	  48
  33	  49
  33	  51
  33	  52
  33	  54
  33	  55
  33	  57
  33	  59
  34	  35
  34	  36
  34	  37
  34	  38
  34	  40
  34	  44
  34	  45
  34	  46
  34	  51
  34	  52
  34	  54
  34	  55
  34	  56
  35	  38
  35	  39
  35	  40
  35	  41
  35	  42
  35	  43
  35	  49
  35	  52
  35	  53
  35	  57
  35	  58
  36	  37
  36	  38
  36	  39
  36	  40
  36	  41
  36	  43
  36	  44
  36	  45
  36	  48
  36	  49
  36	  51
  36	  52
  36	  53
  37	  38
  37	  41
  37	  47
  37	  52
  37	  54
  37	  55
  37	  56
  37	  57
  37	  58
  37	  59
  38	  39
  38	  42
  38	  45
  38	  46
  38	  47
  38	  48
  38	  50
  38	  52
  38	  56
  38	  57
  38	  59
  39	  43
  39	  44
  39	  49
  39	  57
  40	  46
  40	  48
  40	  49
  40	  52
  40	  56
  40	  57
  40	  59
  41	  44
  41	  45
  41	  47
  41	  48
  41	  52
  41	  53
  42	  46
  42	  51
  42	  58
  42	  59
  43	  49
  43	  53
  43	  54
  43	  55
  43	  56
  43	  59
  44	  47
  44	  48
  44	  49
  44	  50
  44	  55
  44	  59
  45	  52
  45	  53
  45	  54
  45	  55
  46	  49
  46	  50
  46	  53
  46	  54
  46	  56
  46	  57
  46	  58
  47	  48
  47	  51
  47	  54
  47	  58
  48	  51
  48	  53
  48	  55
  48	  56
  49	  52
  49	  53
  49	  55
  49	  59
  50	  55
  50	  56
  50	  59
  51	  53
  51	  54
  51	  55
  51	  59
  52	  55
  52	  58
  52	  59
  54	  59
  55	  56
  55	  58
  55	  59
  56	  57
  57	  58
  57	  59
;
